p cnf 21 19
-1 20 0 
-2 21 0 
-3 21 0 
-4 20 0 
-5 -4 20 0 
-6 20 0 
-7 20 0 
-8 20 0 
-9 20 0 
-10 20 0 
-11 13 14 15 20 0 
-12 20 0 
-13 11 14 15 20 0 
-14 11 13 15 20 0 
-15 11 13 14 20 0 
-16 20 0 
-17 20 0 
-18 20 0 
-19 20 0 
